(set-logic QF_S)
(declare-fun H () String)
(declare-fun K () String)
(declare-fun I () String)
(declare-fun G () String)
(declare-fun E () String)
(declare-fun M () String)
(assert (= (str.++  H E G "a" H E G "b" I K "b" K)  (str.++  "aa" E "a" G H H H H "b" M M "baa") ))
(check-sat)
(get-model)
